p edge 14 44
e 1 3
e 1 8
e 1 10
e 2 13
e 3 4
e 3 5
e 3 1
e 4 9
e 4 5
e 4 7
e 4 13
e 4 3
e 5 7
e 5 8
e 5 12
e 5 4
e 5 3
e 6 14
e 6 7
e 7 8
e 7 12
e 7 13
e 7 6
e 7 5
e 7 4
e 8 12
e 8 10
e 8 7
e 8 5
e 8 1
e 9 10
e 9 4
e 10 9
e 10 8
e 10 1
e 11 12
e 12 11
e 12 8
e 12 7
e 12 5
e 13 7
e 13 4
e 13 2
e 14 6
